c Lingeling SAT Solver
c 
c Version azf 92032848c138b2f33629ad24394d60a3787a1046
c 
c Copyright (C) 2010-2014 Armin Biere JKU Linz Austria.
c All rights reserved.
c 
c released Don Mai 22 22:08:00 CEST 2014
c compiled Mon Oct  6 05:55:43 PDT 2014
c 
c gcc (Ubuntu 4.8.2-19ubuntu1) 4.8.2
c -Wall -O3 -DNDBLSCR -DNLGLOG -DNDEBUG -DNCHKSOL -DNLGLPICOSAT -DNLGLDRUPLIG
c -DNLGLYALSAT
c Linux ubuntu 3.13.0-32-generic x86_64
c 
c reading input file benchmark-sat/translations/gc-le450_5c-3.cnf
c no embedded options
c found 'p cnf 1350 31209' header
c read 1350 variables, 31209 clauses, 62868 literals in 0.00 seconds
c 
c  seconds         irredundant          redundant clauses agility   height
c          variables clauses conflicts large ternary binary    glue         MB
c 
c S    0.0    1350    31209         0       0      0     0   0  0.0   0.0    1
c 
c  seconds         irredundant          redundant clauses agility   height
c          variables clauses conflicts large ternary binary    glue         MB
c 
s UNSATISFIABLE
c
c    0.154 100% simplifying
c    0.000   0% search
c ==================================
c    0.155 100% all
c 
c 7 decisions, 45.2 decisions/sec
c 5 conflicts, 32.3 conflicts/sec
c 191 propagations, 0.0 megaprops/sec
c 0.2 seconds, 2.5 MB
